************************************************************************
file with basedata            : j60_24.bas
initial value random generator: 2129233398
************************************************************************
projects                      :  1
jobs (incl. supersource/sink ):  62
horizon                       :  345
RESOURCES
  - renewable                 :  4   R
  - nonrenewable              :  0   N
  - doubly constrained        :  0   D
************************************************************************
PROJECT INFORMATION:
pronr.  #jobs rel.date duedate tardcost  MPM-Time
    1     60      0       83       43       83
************************************************************************
PRECEDENCE RELATIONS:
jobnr.    #modes  #successors   successors
   1        1          3           2   3   4
   2        1          3          12  18  43
   3        1          3           5   6  20
   4        1          3           7  22  34
   5        1          2           8  21
   6        1          1          50
   7        1          3           9  11  42
   8        1          2          32  42
   9        1          3          10  13  25
  10        1          3          19  37  53
  11        1          3          16  24  27
  12        1          2          35  51
  13        1          3          14  15  28
  14        1          1          30
  15        1          2          17  29
  16        1          1          37
  17        1          1          51
  18        1          1          60
  19        1          1          49
  20        1          3          23  33  45
  21        1          3          28  39  61
  22        1          2          26  53
  23        1          1          58
  24        1          1          28
  25        1          1          57
  26        1          1          54
  27        1          1          37
  28        1          1          50
  29        1          2          31  32
  30        1          1          51
  31        1          1          36
  32        1          2          40  47
  33        1          1          39
  34        1          1          43
  35        1          1          48
  36        1          3          38  41  44
  37        1          1          56
  38        1          1          48
  39        1          2          47  49
  40        1          1          55
  41        1          1          52
  42        1          1          56
  43        1          1          46
  44        1          1          45
  45        1          1          48
  46        1          1          50
  47        1          1          52
  48        1          1          54
  49        1          1          59
  50        1          1          59
  51        1          1          60
  52        1          1          59
  53        1          1          56
  54        1          1          58
  55        1          1          58
  56        1          1          60
  57        1          1          61
  58        1          1          61
  59        1          1          62
  60        1          1          62
  61        1          1          62
  62        1          0        
************************************************************************
REQUESTS/DURATIONS:
jobnr. mode duration  R 1  R 2  R 3  R 4
------------------------------------------------------------------------
  1      1     0       0    0    0    0
  2      1     9       0    0    7    2
  3      1    10       6    0    7    0
  4      1     9       1    0    0    0
  5      1     4       1    2    0    0
  6      1     6       0    0    6    6
  7      1     2       0    7    0    0
  8      1     6       0    0    0    4
  9      1    10       4    0    6    0
 10      1     3       7    0    0    1
 11      1     7       2    0    0    0
 12      1     2       0    0    5    9
 13      1     1       7    8    0   10
 14      1    10       0    0    1    8
 15      1     9       8    8   10    0
 16      1     7       0    4    4    0
 17      1     3       0    0    0    5
 18      1     3       8    1    9    2
 19      1     7       4    0    0    7
 20      1     5       0    1    0    6
 21      1     6       7    1    1    3
 22      1     7       5    3    0    0
 23      1     2       7    0    0    0
 24      1     4       8    6    2    0
 25      1     8       5   10    0    0
 26      1     2      10    6    7    0
 27      1     3       9    0    4    0
 28      1    10       8    0    5    3
 29      1     6       0    3    0    0
 30      1     4       0    4    6    0
 31      1     5      10    0    0    0
 32      1     1       0    4    8    0
 33      1     1       1   10    0    4
 34      1     2       0    2    5    0
 35      1     2       1    2    5    6
 36      1     1       0    5    3    0
 37      1     9       0    0   10    0
 38      1     3       0    4    0    9
 39      1     7       0    7    0    0
 40      1     4       5    0    0    0
 41      1     9      10    0    0    0
 42      1     5       0    0    6    3
 43      1     9       0    0    5    5
 44      1     4       1   10    0    0
 45      1     2      10    1    5    0
 46      1     9       0    2   10    7
 47      1     3       0    0    3    0
 48      1     9       0    0    0    5
 49      1     6       0    0    0    4
 50      1    10       0    4    6    7
 51      1     4       0    0    0    9
 52      1     8       0    8    0    3
 53      1     8       2    0    9    7
 54      1     8       7    0    6    8
 55      1     2       5    0    0    4
 56      1     5       0    1    0    0
 57      1     9       3    0    8    0
 58      1    10       7   10    0    0
 59      1    10      10    7    0    4
 60      1     8      10    0    4    0
 61      1     7       0    0    3    1
 62      1     0       0    0    0    0
************************************************************************
RESOURCEAVAILABILITIES:
  R 1  R 2  R 3  R 4
   30   37   45   35
************************************************************************
